# Solution for model obj
# Objective value = 10
x#1 1
x#2 0
x#3 0
x#4 1
x#5 0
x#6 0
x#7 0
x#8 0
x#9 0
x#10 0
x#11 0
x#12 0
x#13 1
x#14 0
x#15 0
x#16 1
x#17 0
x#18 0
x#19 0
x#20 0
x#21 0
x#22 1
x#23 0
x#24 0
x#25 0
x#26 0
x#27 0
x#28 0
x#29 0
x#30 0
x#31 0
x#32 0
x#33 0
x#34 0
x#35 1
x#36 0
x#37 0
x#38 0
x#39 0
x#40 0
x#41 0
x#42 0
x#43 0
x#44 0
x#45 0
x#46 0
x#47 1
x#48 0
x#49 0
x#50 0
x#51 0
x#52 1
x#53 1
x#54 0
x#55 0
x#56 0
x#57 0
x#58 0
x#59 0
x#60 0
x#61 0
x#62 0
x#63 0
x#64 1
